(set-logic QF_UF)
(declare-fun A0 () Bool)
(declare-fun A1 () Bool)
(declare-fun A2 () Bool)
(declare-fun A3 () Bool)
(declare-fun A4 () Bool)
(declare-fun A5 () Bool)
(declare-fun A6 () Bool)
(declare-fun A7 () Bool)
(declare-fun A8 () Bool)
(declare-fun A9 () Bool)
(declare-fun A10 () Bool)
(declare-fun A11 () Bool)
(declare-fun A12 () Bool)
(declare-fun A14 () Bool)
(declare-fun A15 () Bool)
(declare-fun A17 () Bool)
(declare-fun A19 () Bool)
(declare-fun A20 () Bool)
(declare-fun A21 () Bool)
(declare-fun A22 () Bool)
(declare-fun A23 () Bool)
(declare-fun A24 () Bool)
(assert (let ((.def_0 (not A9))) (let ((.def_1 (not A24))) (let ((.def_2 (or .def_1 .def_0))) (let ((.def_3 (not .def_2))) (let ((.def_4 (not A11))) (let ((.def_5 (= A20 .def_4))) (let ((.def_6 (not .def_5))) (let ((.def_7 (or .def_6 .def_3))) (let ((.def_8 (not A4))) (let ((.def_9 (not A19))) (let ((.def_10 (and .def_9 .def_8))) (let ((.def_11 (not .def_10))) (let ((.def_12 (and A8 .def_4))) (let ((.def_13 (not .def_12))) (let ((.def_14 (or .def_13 .def_11))) (let ((.def_15 (or .def_14 .def_7))) (let ((.def_16 (and .def_1 A22))) (let ((.def_17 (not .def_16))) (let ((.def_18 (or A2 A24))) (let ((.def_19 (not .def_18))) (let ((.def_20 (or .def_19 .def_17))) (let ((.def_21 (not .def_20))) (let ((.def_22 (not A17))) (let ((.def_23 (or .def_22 A24))) (let ((.def_24 (and A3 A6))) (let ((.def_25 (or .def_24 .def_23))) (let ((.def_26 (or .def_25 .def_21))) (let ((.def_27 (or .def_26 .def_15))) (let ((.def_28 (not A8))) (let ((.def_29 (and .def_28 .def_0))) (let ((.def_30 (not A2))) (let ((.def_31 (and .def_30 A15))) (let ((.def_32 (not .def_31))) (let ((.def_33 (and .def_32 .def_29))) (let ((.def_34 (not .def_33))) (let ((.def_35 (not A10))) (let ((.def_36 (not A5))) (let ((.def_37 (or .def_36 .def_35))) (let ((.def_38 (not .def_37))) (let ((.def_39 (or A12 A8))) (let ((.def_40 (or .def_39 .def_38))) (let ((.def_41 (and .def_40 .def_34))) (let ((.def_42 (not .def_41))) (let ((.def_43 (and A14 .def_0))) (let ((.def_44 (not .def_43))) (let ((.def_45 (or A11 A23))) (let ((.def_46 (not .def_45))) (let ((.def_47 (or .def_46 .def_44))) (let ((.def_48 (not .def_47))) (let ((.def_49 (and A2 .def_0))) (let ((.def_50 (not .def_49))) (let ((.def_51 (not A12))) (let ((.def_52 (not A3))) (let ((.def_53 (or .def_52 .def_51))) (let ((.def_54 (and .def_53 .def_50))) (let ((.def_55 (not .def_54))) (let ((.def_56 (and .def_55 .def_48))) (let ((.def_57 (or .def_56 .def_42))) (let ((.def_58 (not .def_57))) (let ((.def_59 (or .def_58 .def_27))) (let ((.def_60 (not .def_59))) (let ((.def_61 (not A0))) (let ((.def_62 (and .def_61 A6))) (let ((.def_63 (not .def_62))) (let ((.def_64 (not A20))) (let ((.def_65 (or A20 .def_64))) (let ((.def_66 (not .def_65))) (let ((.def_67 (and .def_66 .def_63))) (let ((.def_68 (or A12 A3))) (let ((.def_69 (not .def_68))) (let ((.def_70 (not A1))) (let ((.def_71 (not A22))) (let ((.def_72 (or .def_71 .def_70))) (let ((.def_73 (not .def_72))) (let ((.def_74 (or .def_73 .def_69))) (let ((.def_75 (not .def_74))) (let ((.def_76 (or .def_75 .def_67))) (let ((.def_77 (not .def_76))) (let ((.def_78 (and A5 A0))) (let ((.def_79 (not .def_78))) (let ((.def_80 (not A15))) (let ((.def_81 (and .def_80 A15))) (let ((.def_82 (and .def_81 .def_79))) (let ((.def_83 (not .def_82))) (let ((.def_84 (and .def_51 A10))) (let ((.def_85 (not A21))) (let ((.def_86 (not A7))) (let ((.def_87 (and .def_86 .def_85))) (let ((.def_88 (or .def_87 .def_84))) (let ((.def_89 (not .def_88))) (let ((.def_90 (or .def_89 .def_83))) (let ((.def_91 (and .def_90 .def_77))) (let ((.def_92 (not .def_91))) (let ((.def_93 (not A23))) (let ((.def_94 (or A3 .def_93))) (let ((.def_95 (not .def_94))) (let ((.def_96 (or A3 A14))) (let ((.def_97 (not .def_96))) (let ((.def_98 (= .def_97 .def_95))) (let ((.def_99 (and A1 A11))) (let ((.def_100 (and A22 A1))) (let ((.def_101 (not .def_100))) (let ((.def_102 (and .def_101 .def_99))) (let ((.def_103 (not .def_102))) (let ((.def_104 (or .def_103 .def_98))) (let ((.def_105 (or .def_36 .def_86))) (let ((.def_106 (not A14))) (let ((.def_107 (and A5 .def_106))) (let ((.def_108 (not .def_107))) (let ((.def_109 (and .def_108 .def_105))) (let ((.def_110 (and A10 A7))) (let ((.def_111 (and A10 A12))) (let ((.def_112 (not .def_111))) (let ((.def_113 (or .def_112 .def_110))) (let ((.def_114 (and .def_113 .def_109))) (let ((.def_115 (and .def_114 .def_104))) (let ((.def_116 (not .def_115))) (let ((.def_117 (or .def_116 .def_92))) (let ((.def_118 (and .def_117 .def_60))) .def_118))))))))))))))))))))))))))))))))))))))))))))))))))))))))))))))))))))))))))))))))))))))))))))))))))))))))))))))))))))))))
(check-sat)
